c Each comment line starts with "c"

c The CNF problem line is: "p" "cnf" $m $l
c   $m is the number of variables
c   $l is the number of clauses

c A CNF problem with 5 variables and 6 clauses:
p cnf 5 6

c Each clause line contains literals and ends with "0"

c A clause line with positive literals x1 and x3:
1 3 0

c A clause line with negative literals -x1 and -x3:
-1 -3 0

2 0

3 4 0

-4 0

5 0
